c WARNING: for repeatability, setting FPU to use double precision
d VARIABLES            140866       
d CONSTRAINTS          591764       
c ============================[ Problem Statistics ]=============================
c |                                                                             |
c |  Number of variables:        140866                                         |
c |  Number of clauses:          591764                                         |
c |  Parse time:                   0.10 s                                       |
c |                                                                             |
c ============================[ Search Statistics ]==============================
c | Conflicts |          ORIGINAL         |          LEARNT          | Progress |
c |           |    Vars  Clauses Literals |    Limit  Clauses Lit/Cl |          |
c ===============================================================================
c |       100 |  110692   513542  1249299 |   188298      100     47 | 21.420 % |
c |       250 |  110692   513542  1249299 |   207128      250     47 | 21.420 % |
c |       475 |  110692   513542  1249299 |   227841      475     85 | 21.420 % |
c |       812 |  110692   513542  1249299 |   250625      812     95 | 21.420 % |
c |      1318 |  110692   513542  1249299 |   275688     1318    125 | 21.420 % |
c |      2077 |  110692   513542  1249299 |   303256     2077    121 | 21.420 % |
c |      3216 |  110692   513542  1249299 |   333582     3216    157 | 21.420 % |
c |      4924 |  110692   513542  1249299 |   366940     4924    164 | 21.420 % |
c |      7486 |  110692   513542  1249299 |   403635     7486    214 | 21.420 % |
c |     11330 |  110692   513542  1249299 |   443998    11330    229 | 21.420 % |
c ===============================================================================
c restarts              : 61
c conflicts             : 13825          (1982 /sec)
c decisions             : 75084          (0.00 % random) (10763 /sec)
c propagations          : 36663763       (5255372 /sec)
c conflict literals     : 3111463        (7.97 % deleted)
d RESTARTS             61
d FAILURES             13825        
d NODES                75084        
d BACKTRACKS           75084        
d PROPAGATIONS         36663763     
d NOGOODSIZE           225.06 
d MEMORY               69.00 
d TIME                 6.97644 

s SATISFIABLE
